c SAT Generator for power-law distributed variable frequencies
c -g u -v 20 -c 91 -k 3 -p 2.750000 -b 3.200000 -f /home/schmidt/Devel/ni-kop-sat/data/ensemble/ruf20-91/ruf20-91-118 -u 1 -U 1 -s 3899525370
p cnf 20 91
-8 12 -15 0
8 -12 -18 0
6 9 -20 0
1 -6 -18 0
-8 10 11 0
2 17 20 0
-2 3 -13 0
6 -19 -20 0
-9 -12 -14 0
1 4 5 0
2 -13 -20 0
5 10 20 0
2 -11 -15 0
4 6 11 0
-6 -16 17 0
8 10 -20 0
-5 9 18 0
-8 -10 -16 0
-1 11 -17 0
11 -12 20 0
1 7 13 0
2 6 18 0
8 -15 -18 0
-4 -5 7 0
-1 -4 -15 0
3 5 -7 0
-3 -10 -16 0
9 -10 18 0
-9 14 -18 0
-2 -3 16 0
6 7 -10 0
1 5 -11 0
-6 12 -16 0
-3 14 -19 0
-3 -5 14 0
-5 -8 17 0
-7 -11 17 0
-3 6 17 0
-9 18 -20 0
5 -7 -10 0
13 14 -20 0
-5 -9 -20 0
1 7 12 0
8 12 15 0
-1 5 10 0
-4 11 12 0
-10 -15 -19 0
1 -11 -15 0
8 15 -16 0
-9 12 14 0
1 -4 -17 0
-2 14 16 0
-12 17 18 0
6 11 18 0
3 -5 19 0
5 17 20 0
-5 7 18 0
-1 -13 18 0
2 5 8 0
3 -15 -18 0
-9 13 14 0
4 -5 13 0
-2 -4 -18 0
8 16 17 0
7 11 -12 0
6 -9 18 0
-9 13 -20 0
14 -18 19 0
10 -17 -20 0
2 7 11 0
-2 11 18 0
2 -16 19 0
-1 8 19 0
-12 -14 -16 0
-3 -6 -11 0
2 -5 -15 0
2 -5 -18 0
-1 -2 12 0
-5 -6 12 0
3 -4 16 0
6 12 -14 0
-4 -9 17 0
2 9 -12 0
-7 12 20 0
6 -9 15 0
10 -13 19 0
4 -7 8 0
-1 4 -5 0
2 -14 16 0
-2 -5 12 0
5 -11 12 0
